155 91
692 341
150 490
3 60
2 4
1 6
1 6
2 4
1 3
1 4
1 3
1 1
3 5
91 46
12 33
30 32
9 42
3 73
2 4
3 5
1 1
2 1
6 5
11 27
5 32
7 11
3 3
2 1
2 2
1 3
1 1
1 2
1 2
1 1
1 1
1 2
10 1
7 1
5 1
3 1
19 9
1 10
1 3
1 1
1 1
49 33
1 9
1 2
1 1
22 10
28 9
9 2
5 2
9 1
5 2
4 1
9 1
1 1
9 1
5 1
4 1
13 1
8 1
6 1
4 1
17 1
9 2
10 1
1 1
5 11
53 3
1 10
1 10
1 2
1 6
1 1
2 5
2 11
3 3
1 7
2 1
2 4
1 6
1 5
1 2
1 2
1 2
1 4
1 2
2 1
17 15
7 5
14 6
8 2
7 1
2 1
2 1
11 1
31 1
2 2
7 2
1 2
26 7
8 2
22 1
4 1
3 1
2 1
13 1
14 1
10 1
3 1
15 13
19 1
9 1
1 1
17 1
29 1
10 1
29 5
2 4
15 10
9 3
2 5
1 6
1 5
1 2
5 3
2 13
2 12
1 6
1 4
1 7
1 4
1 1
4 6
1 6
1 1
2 3
2 2
9 3
2 2
5 3
2 1
1 3
2 2
1 1
3 5
1 2
6 3
6 1
3 1
10 3
9 1
22 1
4 5
18 3
1 1
1 1
1 1
1 1
2 2
2 2
1 1
4 1
14 2
1 1
1 2
2 2
2 1
3 1
9 1
3 1
9 1
12 1
1 1
5 1
14 1
1 1
1 1
1 1
4 1
6 1
3 1
1 1
20 1
1 1
26 7
18 15
28 1
3 1
35 1
5 1
16 1
1 1
615 464
211 521
2 168
10 163
6 150
1 5
1 79
1 4
1 4
5 206
11 204
1 166
1 64
1 7
1 23
1 5
1 4
5 10
5 15
2 3
2 1
1 2
1 3
2 10
1 16
3 20
1 1
2 1
1 1
7 1
17 383
2 16
2 1
1 16
2 13
16 2
1 2
16 2
1 1
1 1
2 1
12 1
6 2
5 1
1 1
16 1
1 1
7 26
2 42
5 9
3 31
2 3
3 5
1 2
1 2
4 2
1 1
1 1
7 5
3 10
3 13
1 9
1 1
2 1
6 1
2 17
2 4
2 2
2 3
1 8
1 5
1 2
4 7
6 15
2 12
1 6
2 10
1 4
1 5
2 1
2 1
1 2
1 1
1 1
3 2
1 8
1 5
2 3
2 3
2 11
3 10
1 10
1 3
1 2
1 1
2 1
5 4
2 2
1 4
1 1
1 2
2 1
3 2
4 2
1 2
5 2
5 6
3 10
3 11
1 10
3 10
2 7
1 9
1 3
1 1
2 3
2 11
5 5
5 2
5 2
130 101
61 1
33 1
2 1
1 1
1 1
1 1
1 1
2 1
33 2
3 1
3 1
1 1
1 1
2 1
2 1
11 2
89 2
111 2
16 3
11 1
2 1
9 1
135 1
5 1
474 374
410 649
90 32
20 723
4 673
1 185
1 14
1 4
1 1
1 2
1 10
1 4
1 14
3 156
2 84
1 30
1 23
1 59
3 43
3 7
3 23
2 43
1 3
1 1
1 14
2 43
1 1
1 3
2 1
2 1
1 25
1 3
1 5
1 1
1 9
1 3
5 77
1 127
1 27
1 35
91 788
9 12
1 69
2 73
3 2
1 2
7 2
3 2
7 1
3 1
3 1
9 4
2 4
1 4
6 6
6 1
1 6
1 1
3 1
5 1
4 2
3 3
1 1
1 1
1 2
1 1
8 2
1 1
1 3
1 1
1 1
1 3
2 1
1 1
1 1
2 1
3 1
6 1
4 50
7 8
1 19
12 1
9 3
11 13
2 3
5 6
1 7
2 2
1 1
1 2
1 2
2 1
7 6
1 4
1 3
1 4
7 2
2 8
6 9
3 4
6 1
1 1
1 1
1 1
1 1
3 2
9 1
6 3
2 5
1 6
1 4
1 1
1 2
1 2
1 5
1 4
1 2
1 2
1 4
1 1
2 3
4 4
3 1
9 1
1 1
14 3
7 3
1 9
3 6
3 5
3 13
1 8
1 4
1 5
1 2
1 3
2 4
1 1
1 2
1 2
1 1
1 1
1 1
1 1
2 2
3 24
5 24
3 23
2 1
3 9
1 13
7 6
1 1
1 3
2 3
3 2
2 1
2 1
1 2
1 1
3 1
3 2
3 4
3 1
3 3
3 6
3 7
1 1
2 1
2 1
1 2
1 1
1 1
1 2
1 6
10 2
2 5
2 7
5 3
1 3
1 1
4 2
2 2
2 2
1 2
3 9
6 3
30 70
59 54
7 58
8 23
3 23
1 33
1 14
1 12
1 12
1 7
1 2
1 19
1 1
1 12
1 3
1 1
1 13
2 11
2 31
1 2
1 8
2 3
1 1
3 4
2 14
2 52
4 14
5 35
2 12
1 2
2 3
1 1
1 2
1 2
2 5
2 5
9 14
1 1
7 3
7 32
2 16
1 11
2 16
1 3
1 5
3 6
7 27
1 14
6 12
6 10
1 4
7 1
2 3
1 1
3 1
1 2
4 2
3 2
2 3
1 1
1 1
7 34
1 1
12 1
53 5
23 15
4 4
23 1
2 2
1 1
1 1
2 1
23 1
1 1
2 1
1 1
1 1
3 1
1 1
1 1
1 1
1 1
1 1
2 1
1 1
1 1
1 1
19 12
4 12
1 1
3 2
2 1
5 2
2 1
1 1
1 1
1 1
7 1
1 1
6 1
2 1
108 68
2 13
1 54
1 43
1 26
1 15
1 4
1 4
1 7
1 3
1 1
1 9
1 3
25 181
60 241
28 19
62 11
13 5
14 3
1 6
1 4
1 12
2 12
2 5
2 7
1 2
6 2
2 2
1 5
5 1
1 4
1 3
6 2
2 2
1 3
1 1
3 1
16 4
3 4
9 3
14 1
17 1
4 2
8 4
13 4
17 1
8 1
10 1
3 1
5 1
15 35
55 22
18 5
3 43
2 1
1 7
1 1
3 6
1 2
2 1
1 1
1 1
20 4
1 32
2 36
9 27
4 7
5 4
1 27
1 29
1 8
5 28
3 19
2 21
2 2
1 18
1 3
1 1
1 4
1 13
5 13
5 6
6 3
2 5
1 2
1 1
2 3
8 1
2 2
2 1
2 1
5 4
5 4
17 8
1 3
1 8
1 5
1 2
1 4
1 1
1 2
2 3
64 11
2 4
7 10
3 32
3 14
1 25
3 30
3 6
6 2
3 11
2 8
1 2
1 3
3 11
2 7
2 2
1 1
1 1
1 1
1 1
4 2
2 2
1 11
10 18
30 7
12 37
14 9
40 6
1 8
3 5
2 1
2 5
2 2
1 2
4 1
1 1
6 3
2 31
3 7
35 1
5 1
1 1
43 1
1 1
28 2
18 6
32 3
2 2
12 1
4 1
30 3
15 3
65 38
7 2
4 4
1 1
3 4
3 2
60 4
16 4
6 2
234 59
257 286
20 209
3 216
4 200
7 229
1 26
1 217
1 66
6 268
2 50
1 22
2 124
1 14
1 262
1 124
1 185
1 118
2 32
2 8
2 1
2 73
2 21
3 14
1 63
1 18
1 183
1 5
4 225
6 22
11 179
1 303
1 12
1 4
1 123
1 15
13 314
2 311
2 14
1 11
1 1
2 1
10 12
17 181
5 37
2 19
3 2
2 10
3 4
2 2
1 1
2 2
2 2
2 1
1 2
1 4
1 2
4 2
1 2
1 1
5 1
8 2
5 4
3 21
14 18
2 4
1 18
1 16
2 33
1 1
1 1
1 16
10 10
3 3
3 8
2 4
1 7
1 2
3 2
2 2
3 10
3 9
7 4
1 8
1 2
1 1
1 1
1 6
4 2
1 2
3 1
3 1
1 1
3 1
8 1
3 2
3 1
4 10
3 4
2 8
4 6
1 4
5 1
2 1
3 1
4 1
7 6
6 4
7 9
3 12
1 4
1 1
11 10
4 18
16 1
1 10
10 21
5 13
4 3
6 8
3 3
3 4
1 1
1 1
1 3
1 1
3 1
1 1
1 1
1 1
2 3
6 2
1 3
2 1
1 1
1 1
1 2
1 2
1 2
4 3
10 1
1 1
4 1
5 1
5 4
7 5
1 3
1 1
2 5
6 1
2 1
1 1
3 1
9 1
4 23
8 7
3 7
3 19
1 2
1 2
1 1
1 1
2 3
4 3
1 6
2 7
3 4
1 4
1 1
2 1
16 16
10 1
5 1
1 2
1 1
1 2
3 3
1 2
2 2
2 1
2 1
2 1
5 1
5 1
1 4
2 1
3 3
1 1
1 1
1 2
1 1
2 1
4 1
5 29
11 6
4 14
1 4
5 19
5 6
3 2
1 1
1 19
1 2
1 4
2 1
1 11
1 5
1 1
1 5
2 13
1 12
1 13
1 1
6 4
2 3
1 1
3 1
4 17
9 1
1 1
1 1
12 2
5 14
19 57
5 134
1 132
2 35
1 19
2 39
2 19
2 10
1 19
1 14
1 22
1 4
2 11
3 51
2 32
1 34
1 12
1 20
1 51
1 32
4 12
1 20
3 24
3 1
3 6
3 5
2 16
1 5
1 1
2 1
4 4
3 1
1 35
2 12
2 9
2 9
4 43
1 5
1 6
1 3
1 1
6 7
3 86
2 76
1 10
1 52
1 3
1 37
1 27
3 2
11 22
3 9
3 134
3 29
2 15
1 112
1 9
1 6
1 12
1 1
1 4
1 3
1 1
2 12
3 11
2 9
1 2
1 1
1 1
1 2
1 2
6 23
2 118
6 61
1 53
1 63
1 1
1 3
1 8
1 1
6 29
2 55
2 2
2 22
26 135
4 180
1 45
2 36
1 35
1 10
1 3
3 33
160 52
36 248
9 133
4 56
6 14
33 7
28 10
7 3
9 4
5 4
1 2
2 1
4 4
1 1
7 2
5 2
2 1
1 3
5 2
2 2
1 1
1 1
1 1
1 1
1 1
1 1
25 2
16 1
3 6
2 5
1 1
21 5
7 1
9 2
4 2
3 1
1 1
5 1
1 1
8 1
6 2
4 2
1 1
2 2
3 1
11 2
4 3
1 1
6 5
1 2
1 3
5 2
2 3
2 1
6 2
1 1
1 2
1 1
8 3
16 1
2 1
41 7
25 16
7 10
2 4
1 6
1 1
1 5
1 1
1 1
2 5
4 5
3 3
1 6
1 5
7 2
9 7
2 1
20 3
3 1
13 1
8 3
10 3
16 4
9 2
1 2
3 2
3 1
2 2
2 2
3 1
11 1
6 1
3 1
60 2
5 14
3 10
1 1
10 1
21 5
1 3
1 3
1 3
20 5
3 1
1 1
18 1
12 23
9 14
1 5
1 4
2 3
5 4
3 4
3 3
1 2
3 1
10 1
1 1
1 1
1 2
9 1
1 2
1 1
2 1
3 3
57 36
2 3
1 2
14 1
8 2
3 1
1 1
2 1
2 1
27 1
5 1
42 2
43 1
74 1
33 56
53 15
1 13
6 24
2 10
1 5
2 1
1 10
3 4
7 7
1 6
1 3
1 7
1 1
1 4
1 2
1 2
23 1
7 19
10 5
4 5
9 1
2 5
2 3
6 1
1 1
5 2
5 1
7 4
3 1
2 3
1 1
3 2
5 1
20 1
4 2
1 2
5 1
2 2
1 1
1 1
32 1
31 2
1 2
32 3
1 3
4 22
22 6
1 16
4 1
3 1
9 1
1 1
6 9
2 10
7 5
4 4
11 3
4 3
2 1
1 1
4 3
3 4
5 4
1 2
1 1
2 1
1 1
2 1
1 1
1 1
2 1
2 1
1 1
1 1
1 1
3 1
4 1
2 1
3 1
9 1
5 1
9 1
6 2
4 1
2 1
2 1
4 1
7 1
10 1
3 1
27 5
2 2
30 2
10 5
1 8
9 2
3 3
2 5
4 3
1 5
1 2
1 5
8 5
1 1
1 2
2 4
7 2
9 2
1 2
15 3
3 1
2 2
2 2
1 1
1 2
1 2
2 1
25 1
9 1
2 1
73 1
12 33
11 1
11 4
4 1
7 1
12 1
1 1
77 6
8 3
10 33
1 1
3 5
1 1
2 3
5 2
2 2
7 1
10 23
1 16
1 7
1 12
2 7
16 26
1 14
1 18
1 4
16 5
1 3
1 17
13 12
4 8
7 6
1 2
7 2
76 146
7 126
11 46
25 70
7 24
1 6
4 26
5 19
1 20
1 4
1 2
1 1
3 1
2 4
1 6
1 2
1 1
4 2
2 5
6 2
4 3
2 2
21 29
8 32
3 24
1 21
3 10
2 6
1 1
5 2
1 4
1 6
2 4
3 4
1 3
1 4
1 3
1 1
4 2
2 1
1 2
1 2
1 1
16 3
3 52
16 48
11 4
4 1
4 2
3 5
1 1
2 1
1 2
3 2
2 4
1 1
2 1
1 1
1 2
1 2
1 2
1 1
1 2
1 1
1 3
6 1
1 4
2 2
18 6
3 1
3 1
9 1
33 1
2 1
23 1
5 1
33 2
1 2
14 1
9 1
29 1
6 1
42 9
2 49
6 96
1 1
5 3
3 1
1 2
1 1
1 1
4 1
2 2
2 2
5 2
1 3
1 1
1 2
5 4
3 1
3 1
1 2
1 1
1 1
2 1
6 1
1 1
5 1
9 1
3 1
2 14
3 35
4 2
1 1
1 1
1 1
2 1
1 1
2 1
4 1
7 1
9 4
1 2
3 30
2 7
2 6
2 3
1 1
6 1
5 2
4 1
1 2
1 1
2 1
1 1
2 1
4 1
6 1
1 1
3 8
4 1
10 1
5 85
7 56
1 6
1 33
1 1
1 26
1 1
6 11
3 16
2 19
1 2
2 2
3 14
3 4
2 1
1 5
1 1
1 1
2 3
1 3
1 1
2 3
1 1
2 1
3 3
6 4
4 1
2 1
4 4
4 1
1 2
1 1
3 2
2 1
3 2
1 2
5 1
8 29
25 46
12 4
4 1
6 2
1 1
5 1
1 1
1 1
3 1
1 1
2 2
1 1
3 1
2 1
1 2
12 1
3 1
5 1
8 1
33 1
2 4
9 3
1 7
1 1
2 3
3 3
9 3
1 6
43 10
4 10
1 7
2 12
2 19
1 33
1 26
1 21
1 17
1 9
1 4
1 1
1 5
1 2
1 3
1 1
1 1
1 2
2 3
1 1
3 3
4 3
6 12
3 11
2 1
1 1
1 1
2 15
1 36
6 20
6 13
1 3
4 9
1 5
2 19
2 2
2 11
1 1
1 3
1 1
1 3
1 1
2 1
1 11
2 1
3 1
9 20
4 9
2 3
3 3
3 9
2 1
1 1
5 4
26 19
20 2
7 22
3 9
1 2
1 1
1 2
1 1
9 7
1 10
6 13
4 3
4 2
43 18
4 7
4 12
2 1
2 10
1 6
1 1
3 10
2 1
4 1
5 8
2 4
1 4
3 1
1 1
3 1
1 2
1 2
2 1
5 1
1 2
1 1
7 3
6 11
3 6
3 3
5 2
1 6
1 2
4 2
2 1
2 1
10 3
3 6
1 2
1 2
1 3
1 1
2 1
53 163
12 223
61 35
4 3
9 2
15 3
1 2
31 3
1 2
2 1
7 1
1 1
7 1
3 1
1 1
13 1
22 1
5 1
2 1
12 1
22 14
40 22
14 22
1 1
1 1
3 1
4 1
7 1
4 1
2 1
11 1
10 1
7 2
2 2
5 1
2 1
1 1
3 1
1 1
1 1
1 1
66 22
13 2
66 1
7 1
16 1
47 232
11 42
14 257
21 123
21 22
12 100
5 5
1 8
3 21
2 7
1 3
1 4
1 1
4 2
1 9
1 1
1 1
1 1
6 8
5 2
1 1
11 37
1 1
3 1
13 1
5 92
13 54
3 34
7 12
3 11
3 1
3 2
3 1
5 12
1 2
2 11
1 5
1 2
1 1
4 2
2 9
2 5
1 3
1 2
1 2
1 1
1 1
2 4
12 16
1 6
12 11
1 9
1 2
1 1
11 24
1 11
1 1
1 7
1 5
1 2
1 3
48 95
6 35
6 31
4 7
2 1
1 1
1 1
44 35
10 8
6 8
54 5
4 3
31 1
2 1
2 1
4 1
23 1
42 2
14 4
37 1
5 1
3 1
1 2
4 1
4 1
3 1
3 1
2 1
1 1
4 1
7 1
2 1
2 1
1 1
4 1
4 1
1 1
1 1
2 1
1 1
2 1
3 1
2 1
1 1
1 1
4 1
1 1
72 10
2 70
2 71
2 28
2 38
9 140
34 54
25 152
6 2
4 94
1 55
1 57
1 1
1 4
1 34
1 12
1 1
2 31
2 3
4 3
26 115
27 35
4 1
1 6
6 23
1 13
1 15
1 3
1 2
1 9
7 31
1 3
5 1
1 2
2 2
4 1
4 1
5 1
3 1
2 6
5 33
1 4
1 1
3 2
2 1
1 2
1 3
1 4
5 22
1 1
1 8
1 1
2 9
2 1
1 2
1 1
1 1
2 1
2 1
3 1
2 1
2 1
2 1
5 5
6 4
1 5
1 1
63 28
2 24
1 3
1 3
1 4
1 1
1 7
1 1
40 18
21 17
3 30
1 7
1 1
12 30
5 1
6 1
1 3
2 2
13 3
24 2
1 1
23 2
1 45
43 6
2 6
1 1
18 1
9 4
6 1
3 1
2 2
1 2
1 1
1 1
2 1
2 1
1 2
17 3
1 2
10 1
5 2
9 1
37 3
21 5
1 1
3 1
1 1
12 1
2 1
16 1
9 1
3 2
1 1
2 1
18 2
1 2
66 25
4 8
5 16
4 2
6 3
1 1
1 1
8 1
2 1
4 1
3 1
3 1
5 1
2 1
1 1
2 1
14 2
1 1
1 3
10 11
8 5
1 16
1 4
1 1
1 4
9 3
1 2
4 6
4 3
3 4
1 4
4 1
5 4
1 1
2 1
2 1
2 1
1 1
12 2
4 3
1 4
1 3
1 3
1 1
1 1
1 1
1 1
3 2
